p cnf 1087 2926
1 0
-62 41 0
-62 51 0
62 -41 -51 0
-63 43 0
-63 62 0
63 -43 -62 0
-64 -63 0
-64 -63 0
64 63 63 0
-65 64 0
-65 64 0
65 -64 -64 0
-66 41 0
-66 51 0
66 -41 -51 0
-67 43 0
-67 66 0
67 -43 -66 0
-68 -67 0
-68 -67 0
68 67 67 0
-69 68 0
-69 68 0
69 -68 -68 0
-70 65 0
-70 -69 0
-71 -65 0
-71 69 0
72 70 71 0
-73 41 0
-73 42 0
73 -41 -42 0
-74 52 0
-74 73 0
74 -52 -73 0
-75 -74 0
-75 -74 0
75 74 74 0
-76 75 0
-76 75 0
76 -75 -75 0
-77 41 0
-77 42 0
77 -41 -42 0
-78 52 0
-78 77 0
78 -52 -77 0
-79 -78 0
-79 -78 0
79 78 78 0
-80 79 0
-80 79 0
80 -79 -79 0
-81 76 0
-81 -80 0
-82 -76 0
-82 80 0
83 81 82 0
84 -72 -83 0
-85 41 0
-85 42 0
85 -41 -42 0
-86 43 0
-86 85 0
86 -43 -85 0
-87 -86 0
-87 -86 0
87 86 86 0
-88 87 0
-88 87 0
88 -87 -87 0
-89 41 0
-89 42 0
89 -41 -42 0
-90 43 0
-90 89 0
90 -43 -89 0
-91 -90 0
-91 -90 0
91 90 90 0
-92 91 0
-92 91 0
92 -91 -91 0
-93 88 0
-93 -92 0
-94 -88 0
-94 92 0
95 93 94 0
96 -84 -95 0
-97 53 0
-97 54 0
97 -53 -54 0
-98 -97 0
-98 -97 0
98 97 97 0
-99 98 0
-99 98 0
99 -98 -98 0
-100 53 0
-100 54 0
100 -53 -54 0
-101 -100 0
-101 -100 0
101 100 100 0
-102 101 0
-102 101 0
102 -101 -101 0
-103 99 0
-103 -102 0
-104 -99 0
-104 102 0
105 103 104 0
106 -96 -105 0
-107 26 0
-107 58 0
107 -26 -58 0
-108 11 0
-108 107 0
108 -11 -107 0
-109 22 0
-109 108 0
109 -22 -108 0
-110 109 0
-110 109 0
110 -109 -109 0
-111 110 0
-111 110 0
111 -110 -110 0
-112 111 0
-112 111 0
112 -111 -111 0
-113 26 0
-113 58 0
113 -26 -58 0
-114 11 0
-114 113 0
114 -11 -113 0
-115 22 0
-115 114 0
115 -22 -114 0
-116 115 0
-116 115 0
116 -115 -115 0
-117 116 0
-117 116 0
117 -116 -116 0
-118 117 0
-118 117 0
118 -117 -117 0
-119 112 0
-119 -118 0
-120 -112 0
-120 118 0
121 119 120 0
122 -106 -121 0
-123 26 0
-123 40 0
123 -26 -40 0
-124 11 0
-124 123 0
124 -11 -123 0
-125 22 0
-125 124 0
125 -22 -124 0
-126 41 0
-126 42 0
126 -41 -42 0
-127 43 0
-127 126 0
127 -43 -126 0
-128 125 0
-128 -127 0
128 -125 127 0
-129 128 0
-129 128 0
129 -128 -128 0
-130 129 0
-130 129 0
130 -129 -129 0
-131 26 0
-131 40 0
131 -26 -40 0
-132 11 0
-132 131 0
132 -11 -131 0
-133 22 0
-133 132 0
133 -22 -132 0
-134 41 0
-134 42 0
134 -41 -42 0
-135 43 0
-135 134 0
135 -43 -134 0
-136 133 0
-136 -135 0
136 -133 135 0
-137 136 0
-137 136 0
137 -136 -136 0
-138 137 0
-138 137 0
138 -137 -137 0
-139 130 0
-139 -138 0
-140 -130 0
-140 138 0
141 139 140 0
142 -122 -141 0
-143 46 0
-143 51 0
143 -46 -51 0
-144 52 0
-144 143 0
144 -52 -143 0
-145 -144 0
-145 -144 0
145 144 144 0
-146 145 0
-146 145 0
146 -145 -145 0
-147 146 0
-147 146 0
147 -146 -146 0
-148 46 0
-148 51 0
148 -46 -51 0
-149 52 0
-149 148 0
149 -52 -148 0
-150 -149 0
-150 -149 0
150 149 149 0
-151 150 0
-151 150 0
151 -150 -150 0
-152 151 0
-152 151 0
152 -151 -151 0
-153 147 0
-153 -152 0
-154 -147 0
-154 152 0
155 153 154 0
156 -142 -155 0
-157 42 0
-157 46 0
157 -42 -46 0
-158 52 0
-158 157 0
158 -52 -157 0
-159 -158 0
-159 -158 0
159 158 158 0
-160 159 0
-160 159 0
160 -159 -159 0
-161 160 0
-161 160 0
161 -160 -160 0
-162 42 0
-162 46 0
162 -42 -46 0
-163 52 0
-163 162 0
163 -52 -162 0
-164 -163 0
-164 -163 0
164 163 163 0
-165 164 0
-165 164 0
165 -164 -164 0
-166 165 0
-166 165 0
166 -165 -165 0
-167 161 0
-167 -166 0
-168 -161 0
-168 166 0
169 167 168 0
170 -156 -169 0
-171 42 0
-171 46 0
171 -42 -46 0
-172 43 0
-172 171 0
172 -43 -171 0
-173 -172 0
-173 -172 0
173 172 172 0
-174 173 0
-174 173 0
174 -173 -173 0
-175 174 0
-175 174 0
175 -174 -174 0
-176 42 0
-176 46 0
176 -42 -46 0
-177 43 0
-177 176 0
177 -43 -176 0
-178 -177 0
-178 -177 0
178 177 177 0
-179 178 0
-179 178 0
179 -178 -178 0
-180 179 0
-180 179 0
180 -179 -179 0
-181 175 0
-181 -180 0
-182 -175 0
-182 180 0
183 181 182 0
184 -170 -183 0
-185 -55 0
-185 -56 0
185 55 56 0
-186 59 0
-186 -185 0
186 -59 185 0
-187 -186 0
-187 -186 0
187 186 186 0
-188 187 0
-188 187 0
188 -187 -187 0
-189 -55 0
-189 -56 0
189 55 56 0
-190 59 0
-190 -189 0
190 -59 189 0
-191 -190 0
-191 -190 0
191 190 190 0
-192 191 0
-192 191 0
192 -191 -191 0
-193 188 0
-193 -192 0
-194 -188 0
-194 192 0
195 193 194 0
196 -184 -195 0
-197 -127 0
-197 -127 0
197 127 127 0
-198 125 0
-198 197 0
198 -125 -197 0
-199 198 0
-199 198 0
199 -198 -198 0
-200 199 0
-200 199 0
200 -199 -199 0
-201 -135 0
-201 -135 0
201 135 135 0
-202 133 0
-202 201 0
202 -133 -201 0
-203 202 0
-203 202 0
203 -202 -202 0
-204 203 0
-204 203 0
204 -203 -203 0
-205 200 0
-205 -204 0
-206 -200 0
-206 204 0
207 205 206 0
208 -196 -207 0
-209 26 0
-209 40 0
209 -26 -40 0
-210 44 0
-210 209 0
210 -44 -209 0
-211 -210 0
-211 -210 0
211 210 210 0
-212 211 0
-212 211 0
212 -211 -211 0
-213 212 0
-213 212 0
213 -212 -212 0
-214 213 0
-214 213 0
214 -213 -213 0
-215 26 0
-215 40 0
215 -26 -40 0
-216 44 0
-216 215 0
216 -44 -215 0
-217 -216 0
-217 -216 0
217 216 216 0
-218 217 0
-218 217 0
218 -217 -217 0
-219 218 0
-219 218 0
219 -218 -218 0
-220 219 0
-220 219 0
220 -219 -219 0
-221 214 0
-221 -220 0
-222 -214 0
-222 220 0
223 221 222 0
224 -208 -223 0
-225 26 0
-225 58 0
225 -26 -58 0
-226 11 0
-226 225 0
226 -11 -225 0
-227 45 0
-227 226 0
227 -45 -226 0
-228 41 0
-228 47 0
228 -41 -47 0
-229 227 0
-229 228 0
229 -227 -228 0
-230 229 0
-230 229 0
230 -229 -229 0
-231 230 0
-231 230 0
231 -230 -230 0
-232 231 0
-232 231 0
232 -231 -231 0
-233 26 0
-233 58 0
233 -26 -58 0
-234 11 0
-234 233 0
234 -11 -233 0
-235 45 0
-235 234 0
235 -45 -234 0
-236 41 0
-236 47 0
236 -41 -47 0
-237 235 0
-237 236 0
237 -235 -236 0
-238 237 0
-238 237 0
238 -237 -237 0
-239 238 0
-239 238 0
239 -238 -238 0
-240 239 0
-240 239 0
240 -239 -239 0
-241 232 0
-241 -240 0
-242 -232 0
-242 240 0
243 241 242 0
244 -224 -243 0
-245 46 0
-245 47 0
245 -46 -47 0
-246 50 0
-246 245 0
246 -50 -245 0
-247 227 0
-247 246 0
247 -227 -246 0
-248 247 0
-248 247 0
248 -247 -247 0
-249 248 0
-249 248 0
249 -248 -248 0
-250 249 0
-250 249 0
250 -249 -249 0
-251 46 0
-251 47 0
251 -46 -47 0
-252 50 0
-252 251 0
252 -50 -251 0
-253 235 0
-253 252 0
253 -235 -252 0
-254 253 0
-254 253 0
254 -253 -253 0
-255 254 0
-255 254 0
255 -254 -254 0
-256 255 0
-256 255 0
256 -255 -255 0
-257 250 0
-257 -256 0
-258 -250 0
-258 256 0
259 257 258 0
260 -244 -259 0
-261 57 0
-261 -185 0
261 -57 185 0
-262 261 0
-262 261 0
262 -261 -261 0
-263 262 0
-263 262 0
263 -262 -262 0
-264 263 0
-264 263 0
264 -263 -263 0
-265 57 0
-265 -189 0
265 -57 189 0
-266 265 0
-266 265 0
266 -265 -265 0
-267 266 0
-267 266 0
267 -266 -266 0
-268 267 0
-268 267 0
268 -267 -267 0
-269 264 0
-269 -268 0
-270 -264 0
-270 268 0
271 269 270 0
272 -260 -271 0
-273 60 0
-273 61 0
273 -60 -61 0
-274 -60 0
-274 -61 0
274 60 61 0
-275 -273 0
-275 -274 0
275 273 274 0
-276 2 0
-276 3 0
276 -2 -3 0
-277 -2 0
-277 -3 0
277 2 3 0
-278 -276 0
-278 -277 0
278 276 277 0
-279 -275 0
-279 -278 0
279 275 278 0
-280 275 0
-280 275 0
280 -275 -275 0
-281 278 0
-281 278 0
281 -278 -278 0
-282 -280 0
-282 -281 0
282 280 281 0
-283 -279 0
-283 -282 0
283 279 282 0
-284 8 0
-284 283 0
284 -8 -283 0
-285 -8 0
-285 -283 0
285 8 283 0
-286 -284 0
-286 -285 0
286 284 285 0
-287 4 0
-287 5 0
287 -4 -5 0
-288 -4 0
-288 -5 0
288 4 5 0
-289 -287 0
-289 -288 0
289 287 288 0
-290 6 0
-290 7 0
290 -6 -7 0
-291 -6 0
-291 -7 0
291 6 7 0
-292 -290 0
-292 -291 0
292 290 291 0
-293 -289 0
-293 -292 0
293 289 292 0
-294 289 0
-294 289 0
294 -289 -289 0
-295 292 0
-295 292 0
295 -292 -292 0
-296 -294 0
-296 -295 0
296 294 295 0
-297 -293 0
-297 -296 0
297 293 296 0
-298 9 0
-298 297 0
298 -9 -297 0
-299 -9 0
-299 -297 0
299 9 297 0
-300 -298 0
-300 -299 0
300 298 299 0
-301 -286 0
-301 -300 0
301 286 300 0
-302 286 0
-302 286 0
302 -286 -286 0
-303 300 0
-303 300 0
303 -300 -300 0
-304 -302 0
-304 -303 0
304 302 303 0
-305 -301 0
-305 -304 0
305 301 304 0
-306 -305 0
-306 -305 0
306 305 305 0
-307 306 0
-307 306 0
307 -306 -306 0
-308 60 0
-308 61 0
308 -60 -61 0
-309 -60 0
-309 -61 0
309 60 61 0
-310 -308 0
-310 -309 0
310 308 309 0
-311 2 0
-311 3 0
311 -2 -3 0
-312 -2 0
-312 -3 0
312 2 3 0
-313 -311 0
-313 -312 0
313 311 312 0
-314 -310 0
-314 -313 0
314 310 313 0
-315 310 0
-315 310 0
315 -310 -310 0
-316 313 0
-316 313 0
316 -313 -313 0
-317 -315 0
-317 -316 0
317 315 316 0
-318 -314 0
-318 -317 0
318 314 317 0
-319 8 0
-319 318 0
319 -8 -318 0
-320 -8 0
-320 -318 0
320 8 318 0
-321 -319 0
-321 -320 0
321 319 320 0
-322 4 0
-322 5 0
322 -4 -5 0
-323 -4 0
-323 -5 0
323 4 5 0
-324 -322 0
-324 -323 0
324 322 323 0
-325 6 0
-325 7 0
325 -6 -7 0
-326 -6 0
-326 -7 0
326 6 7 0
-327 -325 0
-327 -326 0
327 325 326 0
-328 -324 0
-328 -327 0
328 324 327 0
-329 324 0
-329 324 0
329 -324 -324 0
-330 327 0
-330 327 0
330 -327 -327 0
-331 -329 0
-331 -330 0
331 329 330 0
-332 -328 0
-332 -331 0
332 328 331 0
-333 9 0
-333 332 0
333 -9 -332 0
-334 -9 0
-334 -332 0
334 9 332 0
-335 -333 0
-335 -334 0
335 333 334 0
-336 -321 0
-336 -335 0
336 321 335 0
-337 321 0
-337 321 0
337 -321 -321 0
-338 335 0
-338 335 0
338 -335 -335 0
-339 -337 0
-339 -338 0
339 337 338 0
-340 -336 0
-340 -339 0
340 336 339 0
-341 -340 0
-341 -340 0
341 340 340 0
-342 341 0
-342 341 0
342 -341 -341 0
-343 307 0
-343 -342 0
-344 -307 0
-344 342 0
345 343 344 0
346 -272 -345 0
-347 18 0
-347 19 0
347 -18 -19 0
-348 -18 0
-348 -19 0
348 18 19 0
-349 -347 0
-349 -348 0
349 347 348 0
-350 20 0
-350 21 0
350 -20 -21 0
-351 -20 0
-351 -21 0
351 20 21 0
-352 -350 0
-352 -351 0
352 350 351 0
-353 -349 0
-353 -352 0
353 349 352 0
-354 349 0
-354 349 0
354 -349 -349 0
-355 352 0
-355 352 0
355 -352 -352 0
-356 -354 0
-356 -355 0
356 354 355 0
-357 -353 0
-357 -356 0
357 353 356 0
-358 8 0
-358 357 0
358 -8 -357 0
-359 -8 0
-359 -357 0
359 8 357 0
-360 -358 0
-360 -359 0
360 358 359 0
-361 23 0
-361 24 0
361 -23 -24 0
-362 -23 0
-362 -24 0
362 23 24 0
-363 -361 0
-363 -362 0
363 361 362 0
-364 25 0
-364 27 0
364 -25 -27 0
-365 -25 0
-365 -27 0
365 25 27 0
-366 -364 0
-366 -365 0
366 364 365 0
-367 -363 0
-367 -366 0
367 363 366 0
-368 363 0
-368 363 0
368 -363 -363 0
-369 366 0
-369 366 0
369 -366 -366 0
-370 -368 0
-370 -369 0
370 368 369 0
-371 -367 0
-371 -370 0
371 367 370 0
-372 28 0
-372 371 0
372 -28 -371 0
-373 -28 0
-373 -371 0
373 28 371 0
-374 -372 0
-374 -373 0
374 372 373 0
-375 -360 0
-375 -374 0
375 360 374 0
-376 360 0
-376 360 0
376 -360 -360 0
-377 374 0
-377 374 0
377 -374 -374 0
-378 -376 0
-378 -377 0
378 376 377 0
-379 -375 0
-379 -378 0
379 375 378 0
-380 -379 0
-380 -379 0
380 379 379 0
-381 380 0
-381 380 0
381 -380 -380 0
-382 18 0
-382 19 0
382 -18 -19 0
-383 -18 0
-383 -19 0
383 18 19 0
-384 -382 0
-384 -383 0
384 382 383 0
-385 20 0
-385 21 0
385 -20 -21 0
-386 -20 0
-386 -21 0
386 20 21 0
-387 -385 0
-387 -386 0
387 385 386 0
-388 -384 0
-388 -387 0
388 384 387 0
-389 384 0
-389 384 0
389 -384 -384 0
-390 387 0
-390 387 0
390 -387 -387 0
-391 -389 0
-391 -390 0
391 389 390 0
-392 -388 0
-392 -391 0
392 388 391 0
-393 8 0
-393 392 0
393 -8 -392 0
-394 -8 0
-394 -392 0
394 8 392 0
-395 -393 0
-395 -394 0
395 393 394 0
-396 23 0
-396 24 0
396 -23 -24 0
-397 -23 0
-397 -24 0
397 23 24 0
-398 -396 0
-398 -397 0
398 396 397 0
-399 25 0
-399 27 0
399 -25 -27 0
-400 -25 0
-400 -27 0
400 25 27 0
-401 -399 0
-401 -400 0
401 399 400 0
-402 -398 0
-402 -401 0
402 398 401 0
-403 398 0
-403 398 0
403 -398 -398 0
-404 401 0
-404 401 0
404 -401 -401 0
-405 -403 0
-405 -404 0
405 403 404 0
-406 -402 0
-406 -405 0
406 402 405 0
-407 28 0
-407 406 0
407 -28 -406 0
-408 -28 0
-408 -406 0
408 28 406 0
-409 -407 0
-409 -408 0
409 407 408 0
-410 -395 0
-410 -409 0
410 395 409 0
-411 395 0
-411 395 0
411 -395 -395 0
-412 409 0
-412 409 0
412 -409 -409 0
-413 -411 0
-413 -412 0
413 411 412 0
-414 -410 0
-414 -413 0
414 410 413 0
-415 -414 0
-415 -414 0
415 414 414 0
-416 415 0
-416 415 0
416 -415 -415 0
-417 381 0
-417 -416 0
-418 -381 0
-418 416 0
419 417 418 0
420 -346 -419 0
-421 43 0
-421 46 0
421 -43 -46 0
-422 47 0
-422 421 0
422 -47 -421 0
-423 48 0
-423 422 0
423 -48 -422 0
-424 227 0
-424 423 0
424 -227 -423 0
-425 49 0
-425 424 0
425 -49 -424 0
-426 -425 0
-426 -425 0
426 425 425 0
-427 426 0
-427 426 0
427 -426 -426 0
-428 27 0
-428 -427 0
428 -27 427 0
-429 34 0
-429 38 0
429 -34 -38 0
-430 -39 0
-430 -39 0
430 39 39 0
-431 430 0
-431 430 0
431 -430 -430 0
-432 -210 0
-432 -210 0
432 210 210 0
-433 432 0
-433 432 0
433 -432 -432 0
-434 41 0
-434 51 0
434 -41 -51 0
-435 52 0
-435 434 0
435 -52 -434 0
-436 -433 0
-436 435 0
436 433 -435 0
-437 45 0
-437 436 0
437 -45 -436 0
-438 431 0
-438 437 0
438 -431 -437 0
-439 17 0
-439 46 0
439 -17 -46 0
-440 -433 0
-440 -439 0
440 433 439 0
-441 22 0
-441 440 0
441 -22 -440 0
-442 26 0
-442 -441 0
442 -26 441 0
-443 16 0
-443 -442 0
443 -16 442 0
-444 -22 0
-444 -43 0
444 22 43 0
-445 22 0
-445 43 0
445 -22 -43 0
-446 -444 0
-446 -445 0
446 444 445 0
-447 46 0
-447 446 0
447 -46 -446 0
-448 17 0
-448 447 0
448 -17 -447 0
-449 -433 0
-449 448 0
449 433 -448 0
-450 26 0
-450 58 0
450 -26 -58 0
-451 44 0
-451 450 0
451 -44 -450 0
-452 22 0
-452 451 0
452 -22 -451 0
-453 452 0
-453 452 0
453 -452 -452 0
-454 46 0
-454 51 0
454 -46 -51 0
-455 43 0
-455 454 0
455 -43 -454 0
-456 -455 0
-456 -455 0
456 455 455 0
-457 -453 0
-457 -456 0
457 453 456 0
-458 -449 0
-458 -457 0
458 449 457 0
-459 7 0
-459 -458 0
459 -7 458 0
-460 -443 0
-460 -459 0
460 443 459 0
-461 -438 0
-461 460 0
461 438 -460 0
-462 33 0
-462 -461 0
462 -33 461 0
-463 -429 0
-463 -462 0
463 429 462 0
-464 6 0
-464 29 0
464 -6 -29 0
-465 -27 0
-465 461 0
465 27 -461 0
-466 27 0
-466 -461 0
466 -27 461 0
-467 -465 0
-467 -466 0
467 465 466 0
-468 -37 0
-468 -467 0
468 37 467 0
-469 37 0
-469 467 0
469 -37 -467 0
-470 -468 0
-470 -469 0
470 468 469 0
-471 30 0
-471 470 0
471 -30 -470 0
-472 -464 0
-472 -471 0
472 464 471 0
-473 31 0
-473 467 0
473 -31 -467 0
-474 466 0
-474 466 0
474 -466 -466 0
-475 32 0
-475 -474 0
475 -32 474 0
-476 -473 0
-476 -475 0
476 473 475 0
-477 472 0
-477 476 0
477 -472 -476 0
-478 463 0
-478 477 0
478 -463 -477 0
-479 -428 0
-479 478 0
479 428 -478 0
-480 479 0
-480 479 0
480 -479 -479 0
-481 480 0
-481 480 0
481 -480 -480 0
-482 481 0
-482 481 0
482 -481 -481 0
-483 482 0
-483 482 0
483 -482 -482 0
-484 43 0
-484 46 0
484 -43 -46 0
-485 47 0
-485 484 0
485 -47 -484 0
-486 48 0
-486 485 0
486 -48 -485 0
-487 235 0
-487 486 0
487 -235 -486 0
-488 49 0
-488 487 0
488 -49 -487 0
-489 -488 0
-489 -488 0
489 488 488 0
-490 489 0
-490 489 0
490 -489 -489 0
-491 27 0
-491 -490 0
491 -27 490 0
-492 34 0
-492 38 0
492 -34 -38 0
-493 -39 0
-493 -39 0
493 39 39 0
-494 493 0
-494 493 0
494 -493 -493 0
-495 1 0
-495 1 0
495 -1 -1 0
-496 217 0
-496 495 0
496 -217 -495 0
-497 496 0
-497 496 0
497 -496 -496 0
-498 41 0
-498 51 0
498 -41 -51 0
-499 52 0
-499 498 0
499 -52 -498 0
-500 -497 0
-500 499 0
500 497 -499 0
-501 45 0
-501 500 0
501 -45 -500 0
-502 494 0
-502 501 0
502 -494 -501 0
-503 17 0
-503 46 0
503 -17 -46 0
-504 -497 0
-504 -503 0
504 497 503 0
-505 22 0
-505 504 0
505 -22 -504 0
-506 26 0
-506 -505 0
506 -26 505 0
-507 16 0
-507 -506 0
507 -16 506 0
-508 -22 0
-508 -43 0
508 22 43 0
-509 22 0
-509 43 0
509 -22 -43 0
-510 -508 0
-510 -509 0
510 508 509 0
-511 46 0
-511 510 0
511 -46 -510 0
-512 17 0
-512 511 0
512 -17 -511 0
-513 -497 0
-513 512 0
513 497 -512 0
-514 26 0
-514 58 0
514 -26 -58 0
-515 44 0
-515 514 0
515 -44 -514 0
-516 22 0
-516 515 0
516 -22 -515 0
-517 516 0
-517 516 0
517 -516 -516 0
-518 46 0
-518 51 0
518 -46 -51 0
-519 43 0
-519 518 0
519 -43 -518 0
-520 -519 0
-520 -519 0
520 519 519 0
-521 -517 0
-521 -520 0
521 517 520 0
-522 -513 0
-522 -521 0
522 513 521 0
-523 7 0
-523 -522 0
523 -7 522 0
-524 -507 0
-524 -523 0
524 507 523 0
-525 -502 0
-525 524 0
525 502 -524 0
-526 33 0
-526 -525 0
526 -33 525 0
-527 -492 0
-527 -526 0
527 492 526 0
-528 6 0
-528 29 0
528 -6 -29 0
-529 -27 0
-529 525 0
529 27 -525 0
-530 27 0
-530 -525 0
530 -27 525 0
-531 -529 0
-531 -530 0
531 529 530 0
-532 -37 0
-532 -531 0
532 37 531 0
-533 37 0
-533 531 0
533 -37 -531 0
-534 -532 0
-534 -533 0
534 532 533 0
-535 30 0
-535 534 0
535 -30 -534 0
-536 -528 0
-536 -535 0
536 528 535 0
-537 31 0
-537 531 0
537 -31 -531 0
-538 530 0
-538 530 0
538 -530 -530 0
-539 32 0
-539 -538 0
539 -32 538 0
-540 -537 0
-540 -539 0
540 537 539 0
-541 536 0
-541 540 0
541 -536 -540 0
-542 527 0
-542 541 0
542 -527 -541 0
-543 -491 0
-543 542 0
543 491 -542 0
-544 543 0
-544 543 0
544 -543 -543 0
-545 544 0
-545 544 0
545 -544 -544 0
-546 545 0
-546 545 0
546 -545 -545 0
-547 546 0
-547 546 0
547 -546 -546 0
-548 483 0
-548 -547 0
-549 -483 0
-549 547 0
550 548 549 0
551 -420 -550 0
-552 431 0
-552 437 0
552 -431 -437 0
-553 12 0
-553 -442 0
553 -12 442 0
-554 4 0
-554 -458 0
554 -4 458 0
-555 -553 0
-555 -554 0
555 553 554 0
-556 -552 0
-556 555 0
556 552 -555 0
-557 33 0
-557 -556 0
557 -33 556 0
-558 23 0
-558 -427 0
558 -23 427 0
-559 -557 0
-559 -558 0
559 557 558 0
-560 3 0
-560 29 0
560 -3 -29 0
-561 -23 0
-561 556 0
561 23 -556 0
-562 23 0
-562 -556 0
562 -23 556 0
-563 -561 0
-563 -562 0
563 561 562 0
-564 431 0
-564 437 0
564 -431 -437 0
-565 13 0
-565 -442 0
565 -13 442 0
-566 5 0
-566 -458 0
566 -5 458 0
-567 -565 0
-567 -566 0
567 565 566 0
-568 -564 0
-568 567 0
568 564 -567 0
-569 -24 0
-569 568 0
569 24 -568 0
-570 431 0
-570 437 0
570 -431 -437 0
-571 14 0
-571 -442 0
571 -14 442 0
-572 6 0
-572 -458 0
572 -6 458 0
-573 -571 0
-573 -572 0
573 571 572 0
-574 -570 0
-574 573 0
574 570 -573 0
-575 -25 0
-575 574 0
575 25 -574 0
-576 -569 0
-576 -575 0
576 569 575 0
-577 -465 0
-577 576 0
577 465 -576 0
-578 37 0
-578 577 0
578 -37 -577 0
-579 -569 0
-579 -575 0
579 569 575 0
-580 -474 0
-580 579 0
580 474 -579 0
-581 24 0
-581 -568 0
581 -24 568 0
-582 581 0
-582 581 0
582 -581 -581 0
-583 582 0
-583 582 0
583 -582 -582 0
-584 25 0
-584 -574 0
584 -25 574 0
-585 584 0
-585 584 0
585 -584 -584 0
-586 -569 0
-586 -585 0
586 569 585 0
-587 -583 0
-587 -586 0
587 583 586 0
-588 -580 0
-588 587 0
588 580 -587 0
-589 -578 0
-589 588 0
589 578 -588 0
-590 -563 0
-590 589 0
590 563 -589 0
-591 563 0
-591 -589 0
591 -563 589 0
-592 -590 0
-592 -591 0
592 590 591 0
-593 30 0
-593 592 0
593 -30 -592 0
-594 -560 0
-594 -593 0
594 560 593 0
-595 31 0
-595 563 0
595 -31 -563 0
-596 562 0
-596 562 0
596 -562 -562 0
-597 32 0
-597 -596 0
597 -32 596 0
-598 -595 0
-598 -597 0
598 595 597 0
-599 594 0
-599 598 0
599 -594 -598 0
-600 559 0
-600 599 0
600 -559 -599 0
-601 600 0
-601 600 0
601 -600 -600 0
-602 601 0
-602 601 0
602 -601 -601 0
-603 602 0
-603 602 0
603 -602 -602 0
-604 603 0
-604 603 0
604 -603 -603 0
-605 494 0
-605 501 0
605 -494 -501 0
-606 12 0
-606 -506 0
606 -12 506 0
-607 4 0
-607 -522 0
607 -4 522 0
-608 -606 0
-608 -607 0
608 606 607 0
-609 -605 0
-609 608 0
609 605 -608 0
-610 33 0
-610 -609 0
610 -33 609 0
-611 23 0
-611 -490 0
611 -23 490 0
-612 -610 0
-612 -611 0
612 610 611 0
-613 3 0
-613 29 0
613 -3 -29 0
-614 -23 0
-614 609 0
614 23 -609 0
-615 23 0
-615 -609 0
615 -23 609 0
-616 -614 0
-616 -615 0
616 614 615 0
-617 494 0
-617 501 0
617 -494 -501 0
-618 13 0
-618 -506 0
618 -13 506 0
-619 5 0
-619 -522 0
619 -5 522 0
-620 -618 0
-620 -619 0
620 618 619 0
-621 -617 0
-621 620 0
621 617 -620 0
-622 -24 0
-622 621 0
622 24 -621 0
-623 494 0
-623 501 0
623 -494 -501 0
-624 14 0
-624 -506 0
624 -14 506 0
-625 6 0
-625 -522 0
625 -6 522 0
-626 -624 0
-626 -625 0
626 624 625 0
-627 -623 0
-627 626 0
627 623 -626 0
-628 -25 0
-628 627 0
628 25 -627 0
-629 -622 0
-629 -628 0
629 622 628 0
-630 -529 0
-630 629 0
630 529 -629 0
-631 37 0
-631 630 0
631 -37 -630 0
-632 -622 0
-632 -628 0
632 622 628 0
-633 -538 0
-633 632 0
633 538 -632 0
-634 24 0
-634 -621 0
634 -24 621 0
-635 634 0
-635 634 0
635 -634 -634 0
-636 635 0
-636 635 0
636 -635 -635 0
-637 25 0
-637 -627 0
637 -25 627 0
-638 637 0
-638 637 0
638 -637 -637 0
-639 -622 0
-639 -638 0
639 622 638 0
-640 -636 0
-640 -639 0
640 636 639 0
-641 -633 0
-641 640 0
641 633 -640 0
-642 -631 0
-642 641 0
642 631 -641 0
-643 -616 0
-643 642 0
643 616 -642 0
-644 616 0
-644 -642 0
644 -616 642 0
-645 -643 0
-645 -644 0
645 643 644 0
-646 30 0
-646 645 0
646 -30 -645 0
-647 -613 0
-647 -646 0
647 613 646 0
-648 31 0
-648 616 0
648 -31 -616 0
-649 615 0
-649 615 0
649 -615 -615 0
-650 32 0
-650 -649 0
650 -32 649 0
-651 -648 0
-651 -650 0
651 648 650 0
-652 647 0
-652 651 0
652 -647 -651 0
-653 612 0
-653 652 0
653 -612 -652 0
-654 653 0
-654 653 0
654 -653 -653 0
-655 654 0
-655 654 0
655 -654 -654 0
-656 655 0
-656 655 0
656 -655 -655 0
-657 656 0
-657 656 0
657 -656 -656 0
-658 604 0
-658 -657 0
-659 -604 0
-659 657 0
660 658 659 0
661 -551 -660 0
-662 24 0
-662 -427 0
662 -24 427 0
-663 34 0
-663 35 0
663 -34 -35 0
-664 33 0
-664 -568 0
664 -33 568 0
-665 -663 0
-665 -664 0
665 663 664 0
-666 4 0
-666 29 0
666 -4 -29 0
-667 -569 0
-667 -581 0
667 569 581 0
-668 -465 0
-668 -575 0
668 465 575 0
-669 37 0
-669 668 0
669 -37 -668 0
-670 585 0
-670 585 0
670 -585 -585 0
-671 -474 0
-671 -575 0
671 474 575 0
-672 -670 0
-672 -671 0
672 670 671 0
-673 -669 0
-673 672 0
673 669 -672 0
-674 -667 0
-674 673 0
674 667 -673 0
-675 667 0
-675 -673 0
675 -667 673 0
-676 -674 0
-676 -675 0
676 674 675 0
-677 30 0
-677 676 0
677 -30 -676 0
-678 -666 0
-678 -677 0
678 666 677 0
-679 31 0
-679 667 0
679 -31 -667 0
-680 32 0
-680 -582 0
680 -32 582 0
-681 -679 0
-681 -680 0
681 679 680 0
-682 678 0
-682 681 0
682 -678 -681 0
-683 665 0
-683 682 0
683 -665 -682 0
-684 -662 0
-684 683 0
684 662 -683 0
-685 684 0
-685 684 0
685 -684 -684 0
-686 685 0
-686 685 0
686 -685 -685 0
-687 686 0
-687 686 0
687 -686 -686 0
-688 687 0
-688 687 0
688 -687 -687 0
-689 24 0
-689 -490 0
689 -24 490 0
-690 34 0
-690 35 0
690 -34 -35 0
-691 33 0
-691 -621 0
691 -33 621 0
-692 -690 0
-692 -691 0
692 690 691 0
-693 4 0
-693 29 0
693 -4 -29 0
-694 -622 0
-694 -634 0
694 622 634 0
-695 -529 0
-695 -628 0
695 529 628 0
-696 37 0
-696 695 0
696 -37 -695 0
-697 638 0
-697 638 0
697 -638 -638 0
-698 -538 0
-698 -628 0
698 538 628 0
-699 -697 0
-699 -698 0
699 697 698 0
-700 -696 0
-700 699 0
700 696 -699 0
-701 -694 0
-701 700 0
701 694 -700 0
-702 694 0
-702 -700 0
702 -694 700 0
-703 -701 0
-703 -702 0
703 701 702 0
-704 30 0
-704 703 0
704 -30 -703 0
-705 -693 0
-705 -704 0
705 693 704 0
-706 31 0
-706 694 0
706 -31 -694 0
-707 32 0
-707 -635 0
707 -32 635 0
-708 -706 0
-708 -707 0
708 706 707 0
-709 705 0
-709 708 0
709 -705 -708 0
-710 692 0
-710 709 0
710 -692 -709 0
-711 -689 0
-711 710 0
711 689 -710 0
-712 711 0
-712 711 0
712 -711 -711 0
-713 712 0
-713 712 0
713 -712 -712 0
-714 713 0
-714 713 0
714 -713 -713 0
-715 714 0
-715 714 0
715 -714 -714 0
-716 688 0
-716 -715 0
-717 -688 0
-717 715 0
718 716 717 0
719 -661 -718 0
-720 25 0
-720 -427 0
720 -25 427 0
-721 34 0
-721 36 0
721 -34 -36 0
-722 33 0
-722 -574 0
722 -33 574 0
-723 -721 0
-723 -722 0
723 721 722 0
-724 5 0
-724 29 0
724 -5 -29 0
-725 -575 0
-725 -584 0
725 575 584 0
-726 474 0
-726 474 0
726 -474 -474 0
-727 37 0
-727 -465 0
727 -37 465 0
-728 -726 0
-728 -727 0
728 726 727 0
-729 -725 0
-729 728 0
729 725 -728 0
-730 725 0
-730 -728 0
730 -725 728 0
-731 -729 0
-731 -730 0
731 729 730 0
-732 30 0
-732 731 0
732 -30 -731 0
-733 -724 0
-733 -732 0
733 724 732 0
-734 31 0
-734 725 0
734 -31 -725 0
-735 32 0
-735 -585 0
735 -32 585 0
-736 -734 0
-736 -735 0
736 734 735 0
-737 733 0
-737 736 0
737 -733 -736 0
-738 723 0
-738 737 0
738 -723 -737 0
-739 -720 0
-739 738 0
739 720 -738 0
-740 739 0
-740 739 0
740 -739 -739 0
-741 740 0
-741 740 0
741 -740 -740 0
-742 741 0
-742 741 0
742 -741 -741 0
-743 742 0
-743 742 0
743 -742 -742 0
-744 25 0
-744 -490 0
744 -25 490 0
-745 34 0
-745 36 0
745 -34 -36 0
-746 33 0
-746 -627 0
746 -33 627 0
-747 -745 0
-747 -746 0
747 745 746 0
-748 5 0
-748 29 0
748 -5 -29 0
-749 -628 0
-749 -637 0
749 628 637 0
-750 538 0
-750 538 0
750 -538 -538 0
-751 37 0
-751 -529 0
751 -37 529 0
-752 -750 0
-752 -751 0
752 750 751 0
-753 -749 0
-753 752 0
753 749 -752 0
-754 749 0
-754 -752 0
754 -749 752 0
-755 -753 0
-755 -754 0
755 753 754 0
-756 30 0
-756 755 0
756 -30 -755 0
-757 -748 0
-757 -756 0
757 748 756 0
-758 31 0
-758 749 0
758 -31 -749 0
-759 32 0
-759 -638 0
759 -32 638 0
-760 -758 0
-760 -759 0
760 758 759 0
-761 757 0
-761 760 0
761 -757 -760 0
-762 747 0
-762 761 0
762 -747 -761 0
-763 -744 0
-763 762 0
763 744 -762 0
-764 763 0
-764 763 0
764 -763 -763 0
-765 764 0
-765 764 0
765 -764 -764 0
-766 765 0
-766 765 0
766 -765 -765 0
-767 766 0
-767 766 0
767 -766 -766 0
-768 743 0
-768 -767 0
-769 -743 0
-769 767 0
770 768 769 0
771 -719 -770 0
-772 10 0
-772 58 0
772 -10 -58 0
-773 60 0
-773 -458 0
773 -60 458 0
-774 -772 0
-774 -773 0
774 772 773 0
-775 -433 0
-775 -439 0
775 433 439 0
-776 45 0
-776 775 0
776 -45 -775 0
-777 12 0
-777 776 0
777 -12 -776 0
-778 22 0
-778 -433 0
778 -22 433 0
-779 435 0
-779 778 0
779 -435 -778 0
-780 -430 0
-780 779 0
780 430 -779 0
-781 -777 0
-781 -780 0
781 777 780 0
-782 774 0
-782 781 0
782 -774 -781 0
-783 18 0
-783 -782 0
783 -18 782 0
-784 783 0
-784 783 0
784 -783 -783 0
-785 784 0
-785 784 0
785 -784 -784 0
-786 -561 0
-786 -589 0
786 561 589 0
-787 596 0
-787 596 0
787 -596 -596 0
-788 -786 0
-788 -787 0
788 786 787 0
-789 10 0
-789 15 0
789 -10 -15 0
-790 3 0
-790 -458 0
790 -3 458 0
-791 -789 0
-791 -790 0
791 789 790 0
-792 16 0
-792 776 0
792 -16 -776 0
-793 -430 0
-793 779 0
793 430 -779 0
-794 -792 0
-794 -793 0
794 792 793 0
-795 791 0
-795 794 0
795 -791 -794 0
-796 -21 0
-796 795 0
796 21 -795 0
-797 10 0
-797 44 0
797 -10 -44 0
-798 61 0
-798 -458 0
798 -61 458 0
-799 -797 0
-799 -798 0
799 797 798 0
-800 13 0
-800 776 0
800 -13 -776 0
-801 -430 0
-801 779 0
801 430 -779 0
-802 -800 0
-802 -801 0
802 800 801 0
-803 799 0
-803 802 0
803 -799 -802 0
-804 -19 0
-804 803 0
804 19 -803 0
-805 10 0
-805 22 0
805 -10 -22 0
-806 2 0
-806 -458 0
806 -2 458 0
-807 -805 0
-807 -806 0
807 805 806 0
-808 14 0
-808 776 0
808 -14 -776 0
-809 -430 0
-809 779 0
809 430 -779 0
-810 -808 0
-810 -809 0
810 808 809 0
-811 807 0
-811 810 0
811 -807 -810 0
-812 -20 0
-812 811 0
812 20 -811 0
-813 -804 0
-813 -812 0
813 804 812 0
-814 -796 0
-814 813 0
814 796 -813 0
-815 -788 0
-815 814 0
815 788 -814 0
-816 21 0
-816 -795 0
816 -21 795 0
-817 816 0
-817 816 0
817 -816 -816 0
-818 -804 0
-818 -812 0
818 804 812 0
-819 -817 0
-819 818 0
819 817 -818 0
-820 19 0
-820 -803 0
820 -19 803 0
-821 820 0
-821 820 0
821 -820 -820 0
-822 821 0
-822 821 0
822 -821 -821 0
-823 20 0
-823 -811 0
823 -20 811 0
-824 823 0
-824 823 0
824 -823 -823 0
-825 -804 0
-825 -824 0
825 804 824 0
-826 -822 0
-826 -825 0
826 822 825 0
-827 -819 0
-827 826 0
827 819 -826 0
-828 -815 0
-828 827 0
828 815 -827 0
-829 -18 0
-829 782 0
829 18 -782 0
-830 -828 0
-830 -829 0
830 828 829 0
-831 -785 0
-831 -830 0
831 785 830 0
-832 -831 0
-832 -831 0
832 831 831 0
-833 832 0
-833 832 0
833 -832 -832 0
-834 833 0
-834 833 0
834 -833 -833 0
-835 10 0
-835 58 0
835 -10 -58 0
-836 60 0
-836 -522 0
836 -60 522 0
-837 -835 0
-837 -836 0
837 835 836 0
-838 -497 0
-838 -503 0
838 497 503 0
-839 45 0
-839 838 0
839 -45 -838 0
-840 12 0
-840 839 0
840 -12 -839 0
-841 22 0
-841 -497 0
841 -22 497 0
-842 499 0
-842 841 0
842 -499 -841 0
-843 -493 0
-843 842 0
843 493 -842 0
-844 -840 0
-844 -843 0
844 840 843 0
-845 837 0
-845 844 0
845 -837 -844 0
-846 18 0
-846 -845 0
846 -18 845 0
-847 846 0
-847 846 0
847 -846 -846 0
-848 847 0
-848 847 0
848 -847 -847 0
-849 -614 0
-849 -642 0
849 614 642 0
-850 649 0
-850 649 0
850 -649 -649 0
-851 -849 0
-851 -850 0
851 849 850 0
-852 10 0
-852 15 0
852 -10 -15 0
-853 3 0
-853 -522 0
853 -3 522 0
-854 -852 0
-854 -853 0
854 852 853 0
-855 16 0
-855 839 0
855 -16 -839 0
-856 -493 0
-856 842 0
856 493 -842 0
-857 -855 0
-857 -856 0
857 855 856 0
-858 854 0
-858 857 0
858 -854 -857 0
-859 -21 0
-859 858 0
859 21 -858 0
-860 10 0
-860 44 0
860 -10 -44 0
-861 61 0
-861 -522 0
861 -61 522 0
-862 -860 0
-862 -861 0
862 860 861 0
-863 13 0
-863 839 0
863 -13 -839 0
-864 -493 0
-864 842 0
864 493 -842 0
-865 -863 0
-865 -864 0
865 863 864 0
-866 862 0
-866 865 0
866 -862 -865 0
-867 -19 0
-867 866 0
867 19 -866 0
-868 10 0
-868 22 0
868 -10 -22 0
-869 2 0
-869 -522 0
869 -2 522 0
-870 -868 0
-870 -869 0
870 868 869 0
-871 14 0
-871 839 0
871 -14 -839 0
-872 -493 0
-872 842 0
872 493 -842 0
-873 -871 0
-873 -872 0
873 871 872 0
-874 870 0
-874 873 0
874 -870 -873 0
-875 -20 0
-875 874 0
875 20 -874 0
-876 -867 0
-876 -875 0
876 867 875 0
-877 -859 0
-877 876 0
877 859 -876 0
-878 -851 0
-878 877 0
878 851 -877 0
-879 21 0
-879 -858 0
879 -21 858 0
-880 879 0
-880 879 0
880 -879 -879 0
-881 -867 0
-881 -875 0
881 867 875 0
-882 -880 0
-882 881 0
882 880 -881 0
-883 19 0
-883 -866 0
883 -19 866 0
-884 883 0
-884 883 0
884 -883 -883 0
-885 884 0
-885 884 0
885 -884 -884 0
-886 20 0
-886 -874 0
886 -20 874 0
-887 886 0
-887 886 0
887 -886 -886 0
-888 -867 0
-888 -887 0
888 867 887 0
-889 -885 0
-889 -888 0
889 885 888 0
-890 -882 0
-890 889 0
890 882 -889 0
-891 -878 0
-891 890 0
891 878 -890 0
-892 -18 0
-892 845 0
892 18 -845 0
-893 -891 0
-893 -892 0
893 891 892 0
-894 -848 0
-894 -893 0
894 848 893 0
-895 -894 0
-895 -894 0
895 894 894 0
-896 895 0
-896 895 0
896 -895 -895 0
-897 896 0
-897 896 0
897 -896 -896 0
-898 834 0
-898 -897 0
-899 -834 0
-899 897 0
900 898 899 0
901 -771 -900 0
-902 33 0
-902 -795 0
902 -33 795 0
-903 21 0
-903 -427 0
903 -21 427 0
-904 -902 0
-904 -903 0
904 902 903 0
-905 2 0
-905 29 0
905 -2 -29 0
-906 -796 0
-906 -816 0
906 796 816 0
-907 788 0
-907 -906 0
907 -788 906 0
-908 -788 0
-908 906 0
908 788 -906 0
-909 -907 0
-909 -908 0
909 907 908 0
-910 30 0
-910 909 0
910 -30 -909 0
-911 -905 0
-911 -910 0
911 905 910 0
-912 31 0
-912 906 0
912 -31 -906 0
-913 32 0
-913 -817 0
913 -32 817 0
-914 -912 0
-914 -913 0
914 912 913 0
-915 911 0
-915 914 0
915 -911 -914 0
-916 904 0
-916 915 0
916 -904 -915 0
-917 916 0
-917 916 0
917 -916 -916 0
-918 917 0
-918 917 0
918 -917 -917 0
-919 918 0
-919 918 0
919 -918 -918 0
-920 919 0
-920 919 0
920 -919 -919 0
-921 33 0
-921 -858 0
921 -33 858 0
-922 21 0
-922 -490 0
922 -21 490 0
-923 -921 0
-923 -922 0
923 921 922 0
-924 2 0
-924 29 0
924 -2 -29 0
-925 -859 0
-925 -879 0
925 859 879 0
-926 851 0
-926 -925 0
926 -851 925 0
-927 -851 0
-927 925 0
927 851 -925 0
-928 -926 0
-928 -927 0
928 926 927 0
-929 30 0
-929 928 0
929 -30 -928 0
-930 -924 0
-930 -929 0
930 924 929 0
-931 31 0
-931 925 0
931 -31 -925 0
-932 32 0
-932 -880 0
932 -32 880 0
-933 -931 0
-933 -932 0
933 931 932 0
-934 930 0
-934 933 0
934 -930 -933 0
-935 923 0
-935 934 0
935 -923 -934 0
-936 935 0
-936 935 0
936 -935 -935 0
-937 936 0
-937 936 0
937 -936 -936 0
-938 937 0
-938 937 0
938 -937 -937 0
-939 938 0
-939 938 0
939 -938 -938 0
-940 920 0
-940 -939 0
-941 -920 0
-941 939 0
942 940 941 0
943 -901 -942 0
-944 33 0
-944 -782 0
944 -33 782 0
-945 18 0
-945 -427 0
945 -18 427 0
-946 -944 0
-946 -945 0
946 944 945 0
-947 29 0
-947 -431 0
947 -29 431 0
-948 -783 0
-948 -829 0
948 783 829 0
-949 828 0
-949 -948 0
949 -828 948 0
-950 -828 0
-950 948 0
950 828 -948 0
-951 -949 0
-951 -950 0
951 949 950 0
-952 30 0
-952 951 0
952 -30 -951 0
-953 -947 0
-953 -952 0
953 947 952 0
-954 31 0
-954 948 0
954 -31 -948 0
-955 32 0
-955 -784 0
955 -32 784 0
-956 -954 0
-956 -955 0
956 954 955 0
-957 953 0
-957 956 0
957 -953 -956 0
-958 946 0
-958 957 0
958 -946 -957 0
-959 958 0
-959 958 0
959 -958 -958 0
-960 959 0
-960 959 0
960 -959 -959 0
-961 960 0
-961 960 0
961 -960 -960 0
-962 961 0
-962 961 0
962 -961 -961 0
-963 33 0
-963 -845 0
963 -33 845 0
-964 18 0
-964 -490 0
964 -18 490 0
-965 -963 0
-965 -964 0
965 963 964 0
-966 29 0
-966 -494 0
966 -29 494 0
-967 -846 0
-967 -892 0
967 846 892 0
-968 891 0
-968 -967 0
968 -891 967 0
-969 -891 0
-969 967 0
969 891 -967 0
-970 -968 0
-970 -969 0
970 968 969 0
-971 30 0
-971 970 0
971 -30 -970 0
-972 -966 0
-972 -971 0
972 966 971 0
-973 31 0
-973 967 0
973 -31 -967 0
-974 32 0
-974 -847 0
974 -32 847 0
-975 -973 0
-975 -974 0
975 973 974 0
-976 972 0
-976 975 0
976 -972 -975 0
-977 965 0
-977 976 0
977 -965 -976 0
-978 977 0
-978 977 0
978 -977 -977 0
-979 978 0
-979 978 0
979 -978 -978 0
-980 979 0
-980 979 0
980 -979 -979 0
-981 980 0
-981 980 0
981 -980 -980 0
-982 962 0
-982 -981 0
-983 -962 0
-983 981 0
984 982 983 0
985 -943 -984 0
-986 33 0
-986 -803 0
986 -33 803 0
-987 19 0
-987 -427 0
987 -19 427 0
-988 -986 0
-988 -987 0
988 986 987 0
-989 29 0
-989 60 0
989 -29 -60 0
-990 -804 0
-990 -820 0
990 804 820 0
-991 -796 0
-991 -812 0
991 796 812 0
-992 -788 0
-992 991 0
992 788 -991 0
-993 824 0
-993 824 0
993 -824 -824 0
-994 -812 0
-994 -817 0
994 812 817 0
-995 -993 0
-995 -994 0
995 993 994 0
-996 -992 0
-996 995 0
996 992 -995 0
-997 -990 0
-997 996 0
997 990 -996 0
-998 990 0
-998 -996 0
998 -990 996 0
-999 -997 0
-999 -998 0
999 997 998 0
-1000 30 0
-1000 999 0
1000 -30 -999 0
-1001 -989 0
-1001 -1000 0
1001 989 1000 0
-1002 31 0
-1002 990 0
1002 -31 -990 0
-1003 32 0
-1003 -821 0
1003 -32 821 0
-1004 -1002 0
-1004 -1003 0
1004 1002 1003 0
-1005 1001 0
-1005 1004 0
1005 -1001 -1004 0
-1006 988 0
-1006 1005 0
1006 -988 -1005 0
-1007 1006 0
-1007 1006 0
1007 -1006 -1006 0
-1008 1007 0
-1008 1007 0
1008 -1007 -1007 0
-1009 1008 0
-1009 1008 0
1009 -1008 -1008 0
-1010 1009 0
-1010 1009 0
1010 -1009 -1009 0
-1011 33 0
-1011 -866 0
1011 -33 866 0
-1012 19 0
-1012 -490 0
1012 -19 490 0
-1013 -1011 0
-1013 -1012 0
1013 1011 1012 0
-1014 29 0
-1014 60 0
1014 -29 -60 0
-1015 -867 0
-1015 -883 0
1015 867 883 0
-1016 -859 0
-1016 -875 0
1016 859 875 0
-1017 -851 0
-1017 1016 0
1017 851 -1016 0
-1018 887 0
-1018 887 0
1018 -887 -887 0
-1019 -875 0
-1019 -880 0
1019 875 880 0
-1020 -1018 0
-1020 -1019 0
1020 1018 1019 0
-1021 -1017 0
-1021 1020 0
1021 1017 -1020 0
-1022 -1015 0
-1022 1021 0
1022 1015 -1021 0
-1023 1015 0
-1023 -1021 0
1023 -1015 1021 0
-1024 -1022 0
-1024 -1023 0
1024 1022 1023 0
-1025 30 0
-1025 1024 0
1025 -30 -1024 0
-1026 -1014 0
-1026 -1025 0
1026 1014 1025 0
-1027 31 0
-1027 1015 0
1027 -31 -1015 0
-1028 32 0
-1028 -884 0
1028 -32 884 0
-1029 -1027 0
-1029 -1028 0
1029 1027 1028 0
-1030 1026 0
-1030 1029 0
1030 -1026 -1029 0
-1031 1013 0
-1031 1030 0
1031 -1013 -1030 0
-1032 1031 0
-1032 1031 0
1032 -1031 -1031 0
-1033 1032 0
-1033 1032 0
1033 -1032 -1032 0
-1034 1033 0
-1034 1033 0
1034 -1033 -1033 0
-1035 1034 0
-1035 1034 0
1035 -1034 -1034 0
-1036 1010 0
-1036 -1035 0
-1037 -1010 0
-1037 1035 0
1038 1036 1037 0
1039 -985 -1038 0
-1040 33 0
-1040 -811 0
1040 -33 811 0
-1041 20 0
-1041 -427 0
1041 -20 427 0
-1042 -1040 0
-1042 -1041 0
1042 1040 1041 0
-1043 29 0
-1043 61 0
1043 -29 -61 0
-1044 -812 0
-1044 -823 0
1044 812 823 0
-1045 817 0
-1045 817 0
1045 -817 -817 0
-1046 -788 0
-1046 -796 0
1046 788 796 0
-1047 -1045 0
-1047 -1046 0
1047 1045 1046 0
-1048 -1044 0
-1048 1047 0
1048 1044 -1047 0
-1049 1044 0
-1049 -1047 0
1049 -1044 1047 0
-1050 -1048 0
-1050 -1049 0
1050 1048 1049 0
-1051 30 0
-1051 1050 0
1051 -30 -1050 0
-1052 -1043 0
-1052 -1051 0
1052 1043 1051 0
-1053 31 0
-1053 1044 0
1053 -31 -1044 0
-1054 32 0
-1054 -824 0
1054 -32 824 0
-1055 -1053 0
-1055 -1054 0
1055 1053 1054 0
-1056 1052 0
-1056 1055 0
1056 -1052 -1055 0
-1057 1042 0
-1057 1056 0
1057 -1042 -1056 0
-1058 1057 0
-1058 1057 0
1058 -1057 -1057 0
-1059 1058 0
-1059 1058 0
1059 -1058 -1058 0
-1060 1059 0
-1060 1059 0
1060 -1059 -1059 0
-1061 1060 0
-1061 1060 0
1061 -1060 -1060 0
-1062 33 0
-1062 -874 0
1062 -33 874 0
-1063 20 0
-1063 -490 0
1063 -20 490 0
-1064 -1062 0
-1064 -1063 0
1064 1062 1063 0
-1065 29 0
-1065 61 0
1065 -29 -61 0
-1066 -875 0
-1066 -886 0
1066 875 886 0
-1067 880 0
-1067 880 0
1067 -880 -880 0
-1068 -851 0
-1068 -859 0
1068 851 859 0
-1069 -1067 0
-1069 -1068 0
1069 1067 1068 0
-1070 -1066 0
-1070 1069 0
1070 1066 -1069 0
-1071 1066 0
-1071 -1069 0
1071 -1066 1069 0
-1072 -1070 0
-1072 -1071 0
1072 1070 1071 0
-1073 30 0
-1073 1072 0
1073 -30 -1072 0
-1074 -1065 0
-1074 -1073 0
1074 1065 1073 0
-1075 31 0
-1075 1066 0
1075 -31 -1066 0
-1076 32 0
-1076 -887 0
1076 -32 887 0
-1077 -1075 0
-1077 -1076 0
1077 1075 1076 0
-1078 1074 0
-1078 1077 0
1078 -1074 -1077 0
-1079 1064 0
-1079 1078 0
1079 -1064 -1078 0
-1080 1079 0
-1080 1079 0
1080 -1079 -1079 0
-1081 1080 0
-1081 1080 0
1081 -1080 -1080 0
-1082 1081 0
-1082 1081 0
1082 -1081 -1081 0
-1083 1082 0
-1083 1082 0
1083 -1082 -1082 0
-1084 1061 0
-1084 -1083 0
-1085 -1061 0
-1085 1083 0
1086 1084 1085 0
1087 -1039 -1086 0
-1087 0
